1053692
90,19,75,92,8,42,89,31,80,56,97,4,65,66,26,70,22,94,16,88,53,79,18,24,38,99,36,84,10,72,21,74,59,17,15,11,32,45,91,98,23,60,77,62,35,86,27,12,20,57,87,9,7,55,83,34,29,46,43,3,14,100,71,41,48,30,39,96,78,52,5,37,33,13,76,95,82,50,85,68,73,44,2,54,40,64,69,81,25,51,61,58,67,28,93,47,1,63,6,49,90
